Examples/ALTERN.smt2
; SMT-LIBv2 description generated by Yosys 0.8+106 (git sha1 245724a, clang 3.4-1ubuntu3 -fPIC -Os)
; yosys-smt2-module ALTERN
(declare-sort |ALTERN_s| 0)
(declare-fun |ALTERN_is| (|ALTERN_s|) Bool)
; yosys-smt2-input VL_RESET 1
(declare-fun |ALTERN#0| (|ALTERN_s|) Bool) ; \VL_RESET
(define-fun |ALTERN_n VL_RESET| ((state |ALTERN_s|)) Bool (|ALTERN#0| state))
; yosys-smt2-input VL_TICK 1
; yosys-smt2-clock VL_TICK posedge
(declare-fun |ALTERN#1| (|ALTERN_s|) Bool) ; \VL_TICK
(define-fun |ALTERN_n VL_TICK| ((state |ALTERN_s|)) Bool (|ALTERN#1| state))
; yosys-smt2-input a 1
(declare-fun |ALTERN#2| (|ALTERN_s|) Bool) ; \a
(define-fun |ALTERN_n a| ((state |ALTERN_s|)) Bool (|ALTERN#2| state))
; yosys-smt2-output x 1
; yosys-smt2-register x 1
(declare-fun |ALTERN#3| (|ALTERN_s|) (_ BitVec 1)) ; \x
(define-fun |ALTERN_n x| ((state |ALTERN_s|)) Bool (= ((_ extract 0 0) (|ALTERN#3| state)) #b1))
(define-fun |ALTERN#4| ((state |ALTERN_s|)) Bool (not (or  (= ((_ extract 0 0) (|ALTERN#3| state)) #b1) false))) ; $logic_not$ALTERN.vl:18$2_Y
(define-fun |ALTERN#5| ((state |ALTERN_s|)) (_ BitVec 1) (ite (|ALTERN#2| state) (ite (|ALTERN#4| state) #b1 #b0) (|ALTERN#3| state))) ; $0\x[0:0]
(define-fun |ALTERN_a| ((state |ALTERN_s|)) Bool true)
(define-fun |ALTERN_u| ((state |ALTERN_s|)) Bool true)
(define-fun |ALTERN_i| ((state |ALTERN_s|)) Bool 
  (= (= ((_ extract 0 0) (|ALTERN#3| state)) #b1) false) ; x
)
(define-fun |ALTERN_h| ((state |ALTERN_s|)) Bool true)
(define-fun |ALTERN_t| ((state |ALTERN_s|) (next_state |ALTERN_s|)) Bool 
  (= (|ALTERN#5| state) (|ALTERN#3| next_state)) ; $procdff$7 \x
) ; end of module ALTERN
; yosys-smt2-topmod ALTERN
; end of yosys output
